30 5
72 108 61 80 62 62 50 67 68 24 88 34 20 22 103 41 30 71 67 59 78 107 78 90 97 52 43 43 66 110
95 79 62 69 44 62 50 86 65 24 100 12 15 22 85 33 21 72 71 75 89 97 84 78 102 58 43 23 62 80
72 90 69 84 64 39 48 84 67 32 91 27 38 33 91 46 15 62 75 82 94 88 83 69 96 74 51 23 44 81
97 85 72 73 49 59 51 76 63 32 109 19 12 33 100 36 20 83 82 75 71 109 85 78 84 58 33 22 72 81
82 98 59 84 57 54 54 64 45 17 95 32 17 20 86 31 19 54 60 74 79 91 84 94 99 53 46 29 63 85
